Normalized Data/p01_17_normalized_split0.vrp
NAME:p01_17_NORMALIZED_split
BEST_KNOWN: 0
COMMENT: 0
DIMENSION: 193
CAPACITY: 100
EDGE_WEIGHT_FORMAT: FUNCTION
EDGE_WEIGHT_TYPE: EXACT_2D
NODE_COORD_SECTION
1 0.00000 0.00000
2 21 39
3 21 39
4 21 39
5 21 39
6 21 39
7 -3 26
8 -3 26
9 -3 26
10 -3 26
11 -3 26
12 20 -36
13 20 -36
14 20 -36
15 -7 -9
16 -7 -9
17 -7 -9
18 11 -25
19 11 -25
20 11 -25
21 11 -25
22 11 -25
23 5 8
24 5 8
25 5 8
26 5 8
27 5 8
28 5 8
29 5 8
30 -11 30
31 -11 30
32 -11 30
33 -11 30
34 -24 -42
35 -24 -42
36 -24 -48
37 -24 -48
38 -24 -48
39 -24 -48
40 -24 -48
41 -24 -48
42 -13 17
43 -13 17
44 -13 17
45 -13 17
46 -13 17
47 31 25
48 31 25
49 31 25
50 29 -6
51 29 -6
52 29 -6
53 29 -6
54 -22 41
55 -22 41
56 -22 41
57 -22 41
58 -22 41
59 -26 -46
60 -26 -46
61 -26 -46
62 -26 -46
63 43 -3
64 43 -3
65 43 -3
66 29 1
67 29 1
68 -25 -36
69 -25 -36
70 -42 16
71 -42 16
72 -42 16
73 -42 16
74 -42 16
75 19 50
76 19 50
77 19 50
78 -48 15
79 -48 15
80 -48 15
81 -48 15
82 -48 15
83 21 11
84 21 11
85 21 11
86 10 -43
87 10 -43
88 10 -43
89 10 -43
90 10 -43
91 12 -39
92 -47 14
93 -47 14
94 -47 14
95 -47 14
96 -47 14
97 -14 18
98 -14 18
99 -14 18
100 27 2
101 27 2
102 14 10
103 14 10
104 14 10
105 14 10
106 -44 29
107 -44 29
108 -15 -17
109 -15 -17
110 -15 -17
111 -15 -17
112 48 -18
113 48 -18
114 48 -18
115 4 0
116 4 0
117 -43 -5
118 -43 -5
119 -43 -5
120 22 32
121 22 32
122 22 32
123 22 32
124 22 32
125 22 32
126 -43 -41
127 -43 -41
128 -43 -41
129 -43 -41
130 7 -46
131 7 -46
132 7 -46
133 7 -46
134 7 -46
135 7 -46
136 -48 22
137 -48 22
138 -48 22
139 13 50
140 13 50
141 13 50
142 13 50
143 -26 6
144 -26 6
145 -26 6
146 -26 6
147 -7 -15
148 -7 -15
149 -7 -15
150 -12 -36
151 -12 -36
152 -12 -36
153 -38 -41
154 -38 -41
155 -38 -41
156 -38 -41
157 0 -50
158 0 -50
159 0 -50
160 0 -50
161 -36 34
162 -36 34
163 -36 34
164 -47 33
165 -47 33
166 -47 33
167 24 11
168 24 11
169 14 -36
170 14 -36
171 14 -36
172 14 -36
173 14 -36
174 -49 39
175 -49 39
176 -49 39
177 -49 39
178 -49 39
179 -11 4
180 -11 4
181 -11 4
182 -11 4
183 -11 4
184 37 32
185 37 32
186 37 32
187 37 32
188 0 36
189 0 36
190 0 36
191 0 36
192 0 36
193 0 36
DEMAND_SECTION
1 0
2 20
3 1
4 1
5 1
6 1
7 20
8 5
9 1
10 1
11 1
12 20
13 10
14 1
15 20
16 1
17 1
18 20
19 5
20 1
21 1
22 1
23 20
24 10
25 5
26 1
27 1
28 1
29 1
30 20
31 10
32 1
33 1
34 20
35 1
36 20
37 5
38 1
39 1
40 1
41 1
42 20
43 5
44 1
45 1
46 1
47 20
48 20
49 1
50 20
51 5
52 1
53 1
54 20
55 10
56 1
57 1
58 1
59 20
60 10
61 1
62 1
63 20
64 20
65 10
66 20
67 20
68 20
69 1
70 20
71 20
72 1
73 1
74 1
75 20
76 20
77 5
78 10
79 5
80 1
81 1
82 1
83 20
84 1
85 1
86 10
87 1
88 1
89 1
90 1
91 20
92 10
93 5
94 1
95 1
96 1
97 20
98 5
99 1
100 20
101 20
102 20
103 20
104 5
105 1
106 20
107 20
108 20
109 20
110 1
111 1
112 20
113 20
114 1
115 10
116 5
117 20
118 10
119 1
120 20
121 5
122 1
123 1
124 1
125 1
126 20
127 20
128 5
129 1
130 20
131 20
132 5
133 1
134 1
135 1
136 20
137 20
138 1
139 10
140 5
141 1
142 1
143 20
144 10
145 1
146 1
147 10
148 1
149 1
150 20
151 5
152 1
153 10
154 1
155 1
156 1
157 10
158 1
159 1
160 1
161 20
162 10
163 1
164 20
165 5
166 1
167 20
168 5
169 10
170 1
171 1
172 1
173 1
174 20
175 10
176 1
177 1
178 1
179 20
180 20
181 5
182 1
183 1
184 20
185 1
186 1
187 1
188 20
189 10
190 1
191 1
192 1
193 1
DEPOT_SECTION
1
-1
EOF