Normalized Data/p01_17_normalized_split0.sol
192 -4 2 1 3 5 74 76 75 140 141 139 138 -9 7 6 8 10 190 189 191 188 187 192 29 31 32 30 -15 14 16 171 168 170 169 172 13 12 11 17 21 20 18 19 -27 28 26 25 24 22 23 114 115 -45 42 44 41 43 98 97 96 179 178 180 182 -47 46 48 183 185 186 184 124 122 120 123 119 121 -49 65 66 99 100 -52 51 50 113 111 112 62 64 63 -54 55 56 57 53 162 160 161 73 69 71 143 -67 68 33 155 154 153 152 127 128 125 126 -90 87 85 89 86 88 130 129 134 131 133 132 156 158 157 159 -93 95 91 92 94 81 79 78 80 77 137 136 135 70 72 181 -103 101 104 102 82 83 84 166 167 -106 105 163 164 165 173 174 175 176 177 -109 110 108 107 117 116 118 144 145 142 -146 147 148 34 61 59 58 60 36 39 35 40 37 38 151 149 150 0 





OBJ=
1502.108
BEST_KNOWN=
0.000